param o := 0;
param s := 15;

set POI := 1 2 3 4 5 6 7 8 9 10 11 12 13 14;
set M := 1 2;
set Z := 1 2 3;

param TM := 468;

param E :=
1 78
2 120
3 30
;

param e :=
0 1 0 0 2 0 0 3 0
1 1 1 1 2 5 1 3 0
2 1 2 2 2 5 2 3 0
3 1 3 3 2 10 3 3 0
4 1 4 4 2 10 4 3 0
5 1 5 5 2 15 5 3 0
6 1 6 6 2 15 6 3 0
7 1 7 7 2 5 7 3 0
8 1 8 8 2 5 8 3 0
9 1 9 9 2 10 9 3 0
10 1 10 10 2 10 10 3 0
11 1 11 11 2 15 11 3 0
12 1 12 12 2 15 12 3 0
13 1 13 13 2 5 13 3 30
14 1 14 14 2 5 14 3 0
15 1 0 15 2 0 15 3 0
;

param SCORE :=
0 0
1 10
2 20
3 20
4 10
5 30
6 10
7 10
8 30
9 10
10 20
11 20
12 10
13 5
14 60
15 0
;

param OT :=
0 0
1 20
2 20
3 87
4 87
5 173
6 154
7 240
8 227
9 307
10 302
11 383
12 369
13 87
14 307
15 0
;

param TT :=
0 0
1 45
2 45
3 45
4 45
5 45
6 45
7 45
8 45
9 45
10 45
11 45
12 45
13 45
14 45
15 0
;

param CT :=
0 468
1 65
2 65
3 132
4 132
5 218
6 199
7 285
8 272
9 352
10 347
11 428
12 414
13 428
14 352
15 468
;

param t :=
0 1 20 0 2 20 0 3 41 0 4 40 0 5 60 0 6 61 0 7 81 0 8 82 0 9 95 0 10 94 0 11 117 0 12 114 0 13 64 0 14 104 0 15 141
1 0 20 1 2 28 1 3 22 1 4 45 1 5 40 1 6 63 1 7 61 1 8 82 1 9 76 1 10 85 1 11 100 1 12 103 1 13 50 1 14 85 1 15 128
2 0 20 2 1 28 2 3 45 2 4 20 2 5 63 2 6 41 2 7 82 2 8 63 2 9 91 2 10 78 2 11 108 2 12 99 2 13 54 2 14 100 2 15 128
3 0 41 3 1 22 3 2 45 3 4 50 3 5 22 3 6 54 3 7 41 3 8 73 3 9 54 3 10 71 3 11 78 3 12 85 3 13 32 3 14 63 3 15 108
4 0 40 4 1 45 4 2 20 4 3 50 4 5 72 4 6 22 4 7 94 4 8 45 4 9 95 4 10 64 4 11 102 4 12 86 4 13 50 4 14 100 4 15 117
5 0 60 5 1 40 5 2 63 5 3 22 5 4 72 5 6 78 5 7 22 5 8 82 5 9 42 5 10 81 5 11 72 5 12 91 5 13 41 5 14 58 5 15 113
6 0 61 6 1 63 6 2 41 6 3 54 6 4 22 6 5 78 6 7 78 6 8 28 6 9 85 6 10 45 6 11 90 6 12 76 6 13 45 6 14 95 6 15 108
7 0 81 7 1 61 7 2 82 7 3 41 7 4 94 7 5 22 7 6 78 7 8 76 7 9 28 7 10 76 7 11 54 7 12 81 7 13 42 7 14 36 7 15 103
8 0 82 8 1 82 8 2 63 8 3 73 8 4 45 8 5 82 8 6 28 8 7 76 8 9 76 8 10 30 8 11 82 8 12 51 8 13 57 8 14 94 8 15 81
9 0 95 9 1 76 9 2 91 9 3 54 9 4 95 9 5 42 9 6 85 9 7 28 9 8 76 9 10 64 9 11 32 9 12 63 9 13 41 9 14 10 9 15 81
10 0 94 10 1 85 10 2 78 10 3 71 10 4 64 10 5 81 10 6 45 10 7 76 10 8 30 10 9 64 10 11 54 10 12 22 10 13 40 10 14 71 10 15 54
11 0 117 11 1 100 11 2 108 11 3 78 11 4 102 11 5 72 11 6 90 11 7 54 11 8 82 11 9 32 11 10 54 11 12 42 11 13 54 11 14 30 11 15 40
12 0 114 12 1 103 12 2 99 12 3 85 12 4 86 12 5 91 12 6 76 12 7 81 12 8 51 12 9 63 12 10 22 12 11 42 12 13 51 12 14 67 12 15 32
13 0 64 13 1 50 13 2 54 13 3 32 13 4 50 13 5 41 13 6 45 13 7 42 13 8 57 13 9 41 13 10 40 13 11 54 13 12 51 13 14 51 13 15 78
14 0 104 14 1 85 14 2 100 14 3 63 14 4 100 14 5 58 14 6 95 14 7 36 14 8 94 14 9 10 14 10 71 14 11 30 14 12 67 14 13 51 14 15 70
15 0 141 15 1 128 15 2 128 15 3 108 15 4 117 15 5 113 15 6 108 15 7 103 15 8 81 15 9 81 15 10 54 15 11 40 15 12 32 15 13 78 15 14 70
;